c Created with the Wolfram Language : www.wolfram.com
c 
p edge 90 842
e 1 6
e 1 7
e 6 7
e 2 8
e 3 8
e 4 8
e 5 8
e 7 8
e 2 9
e 5 10
e 7 10
e 9 11
e 7 12
e 9 12
e 11 12
e 7 13
e 8 13
e 9 13
e 5 14
e 1 15
e 3 15
e 9 15
e 12 15
e 2 16
e 7 16
e 10 17
e 11 17
e 13 17
e 2 18
e 9 18
e 13 18
e 14 18
e 16 18
e 4 19
e 8 19
e 11 19
e 14 19
e 15 19
e 17 19
e 15 20
e 1 21
e 3 21
e 7 21
e 9 21
e 10 21
e 18 21
e 20 21
e 17 22
e 11 23
e 15 23
e 1 24
e 4 24
e 9 24
e 12 24
e 1 25
e 9 25
e 10 25
e 19 25
e 21 25
e 6 26
e 7 26
e 8 26
e 12 26
e 16 26
e 17 26
e 19 26
e 1 27
e 4 27
e 7 27
e 12 27
e 15 27
e 22 27
e 23 27
e 24 27
e 3 28
e 10 28
e 16 28
e 18 28
e 19 28
e 24 28
e 26 28
e 2 29
e 8 29
e 9 29
e 11 29
e 12 29
e 13 29
e 24 29
e 25 29
e 5 30
e 12 30
e 20 30
e 21 30
e 29 30
e 4 31
e 22 31
e 23 31
e 26 31
e 7 32
e 9 32
e 10 32
e 17 32
e 22 32
e 24 32
e 9 33
e 10 33
e 12 33
e 15 33
e 23 33
e 28 33
e 2 34
e 6 34
e 14 34
e 21 34
e 31 34
e 4 35
e 14 35
e 21 35
e 31 35
e 2 36
e 11 36
e 12 36
e 13 36
e 14 36
e 18 36
e 21 36
e 22 36
e 23 36
e 25 36
e 32 36
e 34 36
e 35 36
e 20 37
e 23 37
e 25 37
e 27 37
e 29 37
e 31 37
e 34 37
e 11 38
e 17 38
e 23 38
e 27 38
e 32 38
e 3 39
e 4 39
e 9 39
e 11 39
e 14 39
e 16 39
e 17 39
e 18 39
e 22 39
e 25 39
e 27 39
e 31 39
e 4 40
e 14 40
e 18 40
e 23 40
e 33 40
e 38 40
e 6 41
e 10 41
e 14 41
e 17 41
e 18 41
e 23 41
e 27 41
e 31 41
e 34 41
e 8 42
e 9 42
e 12 42
e 23 42
e 24 42
e 32 42
e 33 42
e 40 42
e 6 43
e 8 43
e 10 43
e 19 43
e 25 43
e 29 43
e 33 43
e 41 43
e 42 43
e 2 44
e 5 44
e 14 44
e 26 44
e 38 44
e 43 44
e 5 45
e 16 45
e 23 45
e 27 45
e 32 45
e 35 45
e 39 45
e 40 45
e 41 45
e 13 46
e 14 46
e 15 46
e 18 46
e 21 46
e 25 46
e 37 46
e 40 46
e 45 46
e 11 47
e 12 47
e 14 47
e 15 47
e 16 47
e 18 47
e 28 47
e 36 47
e 46 47
e 9 48
e 14 48
e 28 48
e 33 48
e 37 48
e 39 48
e 40 48
e 41 48
e 44 48
e 1 49
e 3 49
e 5 49
e 11 49
e 14 49
e 19 49
e 23 49
e 27 49
e 28 49
e 29 49
e 33 49
e 36 49
e 40 49
e 42 49
e 48 49
e 13 50
e 15 50
e 16 50
e 20 50
e 26 50
e 36 50
e 4 51
e 8 51
e 10 51
e 17 51
e 18 51
e 20 51
e 26 51
e 30 51
e 31 51
e 36 51
e 38 51
e 40 51
e 8 52
e 16 52
e 18 52
e 20 52
e 31 52
e 41 52
e 43 52
e 44 52
e 45 52
e 49 52
e 51 52
e 4 53
e 5 53
e 13 53
e 28 53
e 29 53
e 46 53
e 47 53
e 50 53
e 1 54
e 12 54
e 18 54
e 27 54
e 35 54
e 37 54
e 2 55
e 3 55
e 13 55
e 15 55
e 18 55
e 20 55
e 22 55
e 25 55
e 34 55
e 38 55
e 44 55
e 45 55
e 47 55
e 49 55
e 1 56
e 7 56
e 14 56
e 19 56
e 22 56
e 23 56
e 25 56
e 26 56
e 28 56
e 30 56
e 31 56
e 32 56
e 39 56
e 43 56
e 44 56
e 46 56
e 55 56
e 12 57
e 15 57
e 28 57
e 31 57
e 37 57
e 41 57
e 51 57
e 55 57
e 19 58
e 20 58
e 30 58
e 32 58
e 34 58
e 36 58
e 50 58
e 52 58
e 54 58
e 55 58
e 56 58
e 1 59
e 6 59
e 18 59
e 25 59
e 30 59
e 44 59
e 49 59
e 54 59
e 55 59
e 56 59
e 57 59
e 5 60
e 7 60
e 12 60
e 21 60
e 24 60
e 29 60
e 30 60
e 33 60
e 34 60
e 36 60
e 37 60
e 55 60
e 1 61
e 9 61
e 11 61
e 18 61
e 23 61
e 25 61
e 29 61
e 32 61
e 44 61
e 45 61
e 46 61
e 47 61
e 49 61
e 55 61
e 59 61
e 1 62
e 5 62
e 7 62
e 14 62
e 16 62
e 17 62
e 20 62
e 22 62
e 23 62
e 27 62
e 29 62
e 46 62
e 47 62
e 49 62
e 51 62
e 53 62
e 54 62
e 59 62
e 60 62
e 16 63
e 17 63
e 23 63
e 46 63
e 53 63
e 55 63
e 3 64
e 5 64
e 11 64
e 13 64
e 19 64
e 22 64
e 31 64
e 36 64
e 44 64
e 53 64
e 54 64
e 61 64
e 1 65
e 18 65
e 19 65
e 23 65
e 25 65
e 35 65
e 38 65
e 42 65
e 48 65
e 52 65
e 53 65
e 54 65
e 58 65
e 3 66
e 5 66
e 10 66
e 18 66
e 26 66
e 27 66
e 31 66
e 40 66
e 41 66
e 43 66
e 51 66
e 62 66
e 63 66
e 2 67
e 3 67
e 7 67
e 9 67
e 12 67
e 13 67
e 14 67
e 15 67
e 18 67
e 27 67
e 32 67
e 38 67
e 43 67
e 45 67
e 57 67
e 64 67
e 2 68
e 4 68
e 10 68
e 11 68
e 13 68
e 26 68
e 27 68
e 29 68
e 32 68
e 41 68
e 47 68
e 56 68
e 57 68
e 59 68
e 66 68
e 67 68
e 4 69
e 5 69
e 6 69
e 10 69
e 25 69
e 26 69
e 29 69
e 30 69
e 44 69
e 52 69
e 59 69
e 60 69
e 61 69
e 62 69
e 64 69
e 67 69
e 2 70
e 8 70
e 16 70
e 19 70
e 20 70
e 21 70
e 29 70
e 30 70
e 31 70
e 34 70
e 42 70
e 48 70
e 54 70
e 57 70
e 58 70
e 68 70
e 5 71
e 6 71
e 11 71
e 13 71
e 17 71
e 18 71
e 22 71
e 29 71
e 33 71
e 46 71
e 53 71
e 61 71
e 66 71
e 5 72
e 11 72
e 12 72
e 13 72
e 17 72
e 23 72
e 31 72
e 37 72
e 45 72
e 46 72
e 51 72
e 54 72
e 64 72
e 1 73
e 4 73
e 11 73
e 13 73
e 16 73
e 18 73
e 23 73
e 25 73
e 39 73
e 40 73
e 41 73
e 47 73
e 50 73
e 54 73
e 58 73
e 62 73
e 71 73
e 72 73
e 8 74
e 12 74
e 16 74
e 17 74
e 18 74
e 32 74
e 35 74
e 47 74
e 48 74
e 53 74
e 55 74
e 58 74
e 64 74
e 68 74
e 22 75
e 24 75
e 27 75
e 29 75
e 47 75
e 50 75
e 51 75
e 54 75
e 55 75
e 66 75
e 68 75
e 7 76
e 10 76
e 11 76
e 13 76
e 14 76
e 18 76
e 19 76
e 23 76
e 24 76
e 26 76
e 29 76
e 30 76
e 31 76
e 36 76
e 39 76
e 42 76
e 44 76
e 49 76
e 50 76
e 52 76
e 58 76
e 60 76
e 10 77
e 19 77
e 30 77
e 31 77
e 33 77
e 56 77
e 76 77
e 5 78
e 6 78
e 8 78
e 9 78
e 12 78
e 14 78
e 16 78
e 19 78
e 21 78
e 23 78
e 25 78
e 27 78
e 33 78
e 36 78
e 38 78
e 39 78
e 45 78
e 46 78
e 47 78
e 53 78
e 57 78
e 65 78
e 2 79
e 7 79
e 10 79
e 11 79
e 15 79
e 20 79
e 22 79
e 30 79
e 31 79
e 46 79
e 47 79
e 50 79
e 54 79
e 55 79
e 58 79
e 60 79
e 63 79
e 74 79
e 77 79
e 5 80
e 13 80
e 19 80
e 20 80
e 21 80
e 31 80
e 34 80
e 40 80
e 41 80
e 54 80
e 55 80
e 59 80
e 71 80
e 75 80
e 9 81
e 10 81
e 11 81
e 12 81
e 20 81
e 24 81
e 28 81
e 38 81
e 41 81
e 42 81
e 43 81
e 47 81
e 58 81
e 59 81
e 62 81
e 63 81
e 64 81
e 66 81
e 80 81
e 1 82
e 4 82
e 5 82
e 12 82
e 20 82
e 21 82
e 23 82
e 25 82
e 30 82
e 37 82
e 41 82
e 45 82
e 49 82
e 54 82
e 71 82
e 73 82
e 1 83
e 4 83
e 14 83
e 22 83
e 33 83
e 34 83
e 39 83
e 40 83
e 41 83
e 50 83
e 51 83
e 58 83
e 63 83
e 68 83
e 69 83
e 72 83
e 78 83
e 79 83
e 4 84
e 5 84
e 14 84
e 16 84
e 19 84
e 20 84
e 26 84
e 30 84
e 31 84
e 43 84
e 61 84
e 63 84
e 65 84
e 66 84
e 78 84
e 80 84
e 3 85
e 9 85
e 24 85
e 25 85
e 28 85
e 36 85
e 44 85
e 45 85
e 47 85
e 50 85
e 53 85
e 57 85
e 58 85
e 59 85
e 64 85
e 65 85
e 67 85
e 84 85
e 6 86
e 15 86
e 16 86
e 17 86
e 27 86
e 30 86
e 44 86
e 48 86
e 50 86
e 51 86
e 52 86
e 55 86
e 56 86
e 57 86
e 58 86
e 61 86
e 76 86
e 81 86
e 1 87
e 5 87
e 6 87
e 7 87
e 10 87
e 11 87
e 14 87
e 15 87
e 16 87
e 17 87
e 22 87
e 25 87
e 26 87
e 31 87
e 35 87
e 47 87
e 49 87
e 52 87
e 64 87
e 71 87
e 72 87
e 73 87
e 74 87
e 77 87
e 81 87
e 5 88
e 6 88
e 11 88
e 17 88
e 19 88
e 27 88
e 30 88
e 49 88
e 50 88
e 51 88
e 58 88
e 59 88
e 60 88
e 65 88
e 66 88
e 68 88
e 69 88
e 73 88
e 74 88
e 81 88
e 84 88
e 85 88
e 9 89
e 12 89
e 22 89
e 25 89
e 28 89
e 30 89
e 36 89
e 37 89
e 40 89
e 45 89
e 48 89
e 53 89
e 56 89
e 57 89
e 59 89
e 61 89
e 63 89
e 79 89
e 87 89
e 4 90
e 8 90
e 17 90
e 20 90
e 28 90
e 36 90
e 37 90
e 42 90
e 52 90
e 57 90
e 61 90
e 63 90
e 65 90
e 66 90
e 72 90
